c This DIMACS format CNF file was generated by SatSolver.cpp
c Do not edit.
p cnf 147 697
1 22 43 64 85 106 127 0
2 23 44 65 86 107 128 0
3 24 45 66 87 108 129 0
4 25 46 67 88 109 130 0
5 26 47 68 89 110 131 0
6 27 48 69 90 111 132 0
7 28 49 70 91 112 133 0
8 29 50 71 92 113 134 0
9 30 51 72 93 114 135 0
10 31 52 73 94 115 136 0
11 32 53 74 95 116 137 0
12 33 54 75 96 117 138 0
13 34 55 76 97 118 139 0
14 35 56 77 98 119 140 0
15 36 57 78 99 120 141 0
16 37 58 79 100 121 142 0
17 38 59 80 101 122 143 0
18 39 60 81 102 123 144 0
19 40 61 82 103 124 145 0
20 41 62 83 104 125 146 0
21 42 63 84 105 126 147 0
1 127 0
106 127 0
85 127 0
106 127 0
64 127 0
106 127 0
85 127 0
106 127 0
43 127 0
106 127 0
85 127 0
106 127 0
64 127 0
106 127 0
85 127 0
106 127 0
22 127 0
106 127 0
85 127 0
106 127 0
64 127 0
106 127 0
85 127 0
106 127 0
43 127 0
106 127 0
85 127 0
106 127 0
64 127 0
106 127 0
85 127 0
106 127 0
2 128 0
107 128 0
86 128 0
107 128 0
65 128 0
107 128 0
86 128 0
107 128 0
44 128 0
107 128 0
86 128 0
107 128 0
65 128 0
107 128 0
86 128 0
107 128 0
23 128 0
107 128 0
86 128 0
107 128 0
65 128 0
107 128 0
86 128 0
107 128 0
44 128 0
107 128 0
86 128 0
107 128 0
65 128 0
107 128 0
86 128 0
107 128 0
3 129 0
108 129 0
87 129 0
108 129 0
66 129 0
108 129 0
87 129 0
108 129 0
45 129 0
108 129 0
87 129 0
108 129 0
66 129 0
108 129 0
87 129 0
108 129 0
24 129 0
108 129 0
87 129 0
108 129 0
66 129 0
108 129 0
87 129 0
108 129 0
45 129 0
108 129 0
87 129 0
108 129 0
66 129 0
108 129 0
87 129 0
108 129 0
4 130 0
109 130 0
88 130 0
109 130 0
67 130 0
109 130 0
88 130 0
109 130 0
46 130 0
109 130 0
88 130 0
109 130 0
67 130 0
109 130 0
88 130 0
109 130 0
25 130 0
109 130 0
88 130 0
109 130 0
67 130 0
109 130 0
88 130 0
109 130 0
46 130 0
109 130 0
88 130 0
109 130 0
67 130 0
109 130 0
88 130 0
109 130 0
5 131 0
110 131 0
89 131 0
110 131 0
68 131 0
110 131 0
89 131 0
110 131 0
47 131 0
110 131 0
89 131 0
110 131 0
68 131 0
110 131 0
89 131 0
110 131 0
26 131 0
110 131 0
89 131 0
110 131 0
68 131 0
110 131 0
89 131 0
110 131 0
47 131 0
110 131 0
89 131 0
110 131 0
68 131 0
110 131 0
89 131 0
110 131 0
6 132 0
111 132 0
90 132 0
111 132 0
69 132 0
111 132 0
90 132 0
111 132 0
48 132 0
111 132 0
90 132 0
111 132 0
69 132 0
111 132 0
90 132 0
111 132 0
27 132 0
111 132 0
90 132 0
111 132 0
69 132 0
111 132 0
90 132 0
111 132 0
48 132 0
111 132 0
90 132 0
111 132 0
69 132 0
111 132 0
90 132 0
111 132 0
7 133 0
112 133 0
91 133 0
112 133 0
70 133 0
112 133 0
91 133 0
112 133 0
49 133 0
112 133 0
91 133 0
112 133 0
70 133 0
112 133 0
91 133 0
112 133 0
28 133 0
112 133 0
91 133 0
112 133 0
70 133 0
112 133 0
91 133 0
112 133 0
49 133 0
112 133 0
91 133 0
112 133 0
70 133 0
112 133 0
91 133 0
112 133 0
8 134 0
113 134 0
92 134 0
113 134 0
71 134 0
113 134 0
92 134 0
113 134 0
50 134 0
113 134 0
92 134 0
113 134 0
71 134 0
113 134 0
92 134 0
113 134 0
29 134 0
113 134 0
92 134 0
113 134 0
71 134 0
113 134 0
92 134 0
113 134 0
50 134 0
113 134 0
92 134 0
113 134 0
71 134 0
113 134 0
92 134 0
113 134 0
9 135 0
114 135 0
93 135 0
114 135 0
72 135 0
114 135 0
93 135 0
114 135 0
51 135 0
114 135 0
93 135 0
114 135 0
72 135 0
114 135 0
93 135 0
114 135 0
30 135 0
114 135 0
93 135 0
114 135 0
72 135 0
114 135 0
93 135 0
114 135 0
51 135 0
114 135 0
93 135 0
114 135 0
72 135 0
114 135 0
93 135 0
114 135 0
10 136 0
115 136 0
94 136 0
115 136 0
73 136 0
115 136 0
94 136 0
115 136 0
52 136 0
115 136 0
94 136 0
115 136 0
73 136 0
115 136 0
94 136 0
115 136 0
31 136 0
115 136 0
94 136 0
115 136 0
73 136 0
115 136 0
94 136 0
115 136 0
52 136 0
115 136 0
94 136 0
115 136 0
73 136 0
115 136 0
94 136 0
115 136 0
11 137 0
116 137 0
95 137 0
116 137 0
74 137 0
116 137 0
95 137 0
116 137 0
53 137 0
116 137 0
95 137 0
116 137 0
74 137 0
116 137 0
95 137 0
116 137 0
32 137 0
116 137 0
95 137 0
116 137 0
74 137 0
116 137 0
95 137 0
116 137 0
53 137 0
116 137 0
95 137 0
116 137 0
74 137 0
116 137 0
95 137 0
116 137 0
12 138 0
117 138 0
96 138 0
117 138 0
75 138 0
117 138 0
96 138 0
117 138 0
54 138 0
117 138 0
96 138 0
117 138 0
75 138 0
117 138 0
96 138 0
117 138 0
33 138 0
117 138 0
96 138 0
117 138 0
75 138 0
117 138 0
96 138 0
117 138 0
54 138 0
117 138 0
96 138 0
117 138 0
75 138 0
117 138 0
96 138 0
117 138 0
13 139 0
118 139 0
97 139 0
118 139 0
76 139 0
118 139 0
97 139 0
118 139 0
55 139 0
118 139 0
97 139 0
118 139 0
76 139 0
118 139 0
97 139 0
118 139 0
34 139 0
118 139 0
97 139 0
118 139 0
76 139 0
118 139 0
97 139 0
118 139 0
55 139 0
118 139 0
97 139 0
118 139 0
76 139 0
118 139 0
97 139 0
118 139 0
14 140 0
119 140 0
98 140 0
119 140 0
77 140 0
119 140 0
98 140 0
119 140 0
56 140 0
119 140 0
98 140 0
119 140 0
77 140 0
119 140 0
98 140 0
119 140 0
35 140 0
119 140 0
98 140 0
119 140 0
77 140 0
119 140 0
98 140 0
119 140 0
56 140 0
119 140 0
98 140 0
119 140 0
77 140 0
119 140 0
98 140 0
119 140 0
15 141 0
120 141 0
99 141 0
120 141 0
78 141 0
120 141 0
99 141 0
120 141 0
57 141 0
120 141 0
99 141 0
120 141 0
78 141 0
120 141 0
99 141 0
120 141 0
36 141 0
120 141 0
99 141 0
120 141 0
78 141 0
120 141 0
99 141 0
120 141 0
57 141 0
120 141 0
99 141 0
120 141 0
78 141 0
120 141 0
99 141 0
120 141 0
16 142 0
121 142 0
100 142 0
121 142 0
79 142 0
121 142 0
100 142 0
121 142 0
58 142 0
121 142 0
100 142 0
121 142 0
79 142 0
121 142 0
100 142 0
121 142 0
37 142 0
121 142 0
100 142 0
121 142 0
79 142 0
121 142 0
100 142 0
121 142 0
58 142 0
121 142 0
100 142 0
121 142 0
79 142 0
121 142 0
100 142 0
121 142 0
17 143 0
122 143 0
101 143 0
122 143 0
80 143 0
122 143 0
101 143 0
122 143 0
59 143 0
122 143 0
101 143 0
122 143 0
80 143 0
122 143 0
101 143 0
122 143 0
38 143 0
122 143 0
101 143 0
122 143 0
80 143 0
122 143 0
101 143 0
122 143 0
59 143 0
122 143 0
101 143 0
122 143 0
80 143 0
122 143 0
101 143 0
122 143 0
18 144 0
123 144 0
102 144 0
123 144 0
81 144 0
123 144 0
102 144 0
123 144 0
60 144 0
123 144 0
102 144 0
123 144 0
81 144 0
123 144 0
102 144 0
123 144 0
39 144 0
123 144 0
102 144 0
123 144 0
81 144 0
123 144 0
102 144 0
123 144 0
60 144 0
123 144 0
102 144 0
123 144 0
81 144 0
123 144 0
102 144 0
123 144 0
19 145 0
124 145 0
103 145 0
124 145 0
82 145 0
124 145 0
103 145 0
124 145 0
61 145 0
124 145 0
103 145 0
124 145 0
82 145 0
124 145 0
103 145 0
124 145 0
40 145 0
124 145 0
103 145 0
124 145 0
82 145 0
124 145 0
103 145 0
124 145 0
61 145 0
124 145 0
103 145 0
124 145 0
82 145 0
124 145 0
103 145 0
124 145 0
20 146 0
125 146 0
104 146 0
125 146 0
83 146 0
125 146 0
104 146 0
125 146 0
62 146 0
125 146 0
104 146 0
125 146 0
83 146 0
125 146 0
104 146 0
125 146 0
41 146 0
125 146 0
104 146 0
125 146 0
83 146 0
125 146 0
104 146 0
125 146 0
62 146 0
125 146 0
104 146 0
125 146 0
83 146 0
125 146 0
104 146 0
125 146 0
21 147 0
126 147 0
105 147 0
126 147 0
84 147 0
126 147 0
105 147 0
126 147 0
63 147 0
126 147 0
105 147 0
126 147 0
84 147 0
126 147 0
105 147 0
126 147 0
42 147 0
126 147 0
105 147 0
126 147 0
84 147 0
126 147 0
105 147 0
126 147 0
63 147 0
126 147 0
105 147 0
126 147 0
84 147 0
126 147 0
105 147 0
126 147 0
127 128 129 130 131 132 0
127 128 129 130 131 132 133 134 135 136 137 138 0
127 128 129 130 131 132 133 134 135 136 137 138 139 140 141 142 143 144 145 146 147 0
147 0
